%nproc=16
%mem=5gb
#B3LYP CBSB7 SP

Methane radical distorted 

0 2
6           0        0.000000    0.000000    0.000000
1           0       -0.000000   -0.000000    1.090476
1           0       -0.000000   -1.028110   -0.363492
1           0       -0.890370    0.514055   -0.363492


